cost: 812.12
Route 1:           0    7   33   28   44   32   23   11    0
Route 2:           0    8    3   14    0
Route 3:           0    9    2   50   43   31    0
Route 4:           0   20   19   26   15   48   49   47    0
Route 5:           0   35   45   40   38   34    0
Route 6:           0   39   29    6   12   22   21    0
Route 7:           0   41   27   25   18    0
Route 8:           0   42   36   37   24    4    0
Route 9:           0   46   17   13    1   30   10    5   16    0
